proyfinal/src/viki/013/experimentInOfficeAgust.take6.output/f20a8e4c-0647-4a16-956d-d2607d9a2922.als.dat
{'cnf.clauses': '118081',
 'cnf.totvars': '69608',
 'conflict literals': '58',
 'conflicts': '23',
 'decisions': '5475',
 'memused.mb': '15.40',
 'outcome': 'UNSAT',
 'propagations': '27289',
 'restarts': '1',
 'solver.msecs': 36,
 'task.msecs': 83}
