proyfinal/src/viki/013/experimentInOfficeAgust.take6.output/f20a8e4c-0647-4a16-956d-d2607d9a2922.als.out
Reading from standard input... Use '--help' for help.
============================[ Problem Statistics ]=============================
|                                                                             |
|  Number of variables:         69608                                         |
|  Number of clauses:          118081                                         |
|  Parse time:                   0.03 s                                       |
|                                                                             |
============================[ Search Statistics ]==============================
| Conflicts |          ORIGINAL         |          LEARNT          | Progress |
|           |    Vars  Clauses Literals |    Limit  Clauses Lit/Cl |          |
===============================================================================
===============================================================================
restarts              : 1
conflicts             : 23             (631 /sec)
decisions             : 5475           (0.00 % random) (150288 /sec)
propagations          : 27289          (749080 /sec)
conflict literals     : 58             (0.00 % deleted)
Memory used           : 15.40 MB
CPU time              : 0.03643 s

UNSATISFIABLE
